;;;;;;;;;;;;;;;;;;;;;;;;;;;;;;;;;;;;;;;;;;;;;;;;;;;;;;;;;;;;;;;;;;;;;;;;;;;;;;;;
; litmus test constraints
;;;;;;;;;;;;;;;;;;;;;;;;;;;;;;;;;;;;;;;;;;;;;;;;;;;;;;;;;;;;;;;;;;;;;;;;;;;;;;;;

(assert 
  (or 
    (and (= mem_1_0 #x0001) (= mem_1_1 #x0001)) 
    (and (= mem_2_0 #x0001) (= mem_2_1 #x0001)) 
    (and (= mem_3_0 #x0001) (= mem_3_1 #x0001)) 
    (and (= mem_4_0 #x0001) (= mem_4_1 #x0001)) 
    (and (= mem_5_0 #x0001) (= mem_5_1 #x0001)) 
    (and (= mem_6_0 #x0001) (= mem_6_1 #x0001)) 
    (and (= mem_7_0 #x0001) (= mem_7_1 #x0001)) 
    (and (= mem_8_0 #x0001) (= mem_8_1 #x0001)) 
    (and (= mem_9_0 #x0001) (= mem_9_1 #x0001)) 
    (and (= mem_10_0 #x0001) (= mem_10_1 #x0001))))
